NAME : 30_2_06.48952.tour
COMMENT : Cost = 0_48952
COMMENT : Found by LKH [Keld Helsgaun] Thu Sep 14 11:07:26 2017
TYPE : TOUR
DIMENSION : 32
TOUR_SECTION
1
3
4
30
6
31
14
13
23
19
24
22
20
21
26
25
15
32
28
29
12
8
7
17
18
10
9
27
11
2
16
5
-1
EOF
